(set-info :status sat) ; swine result
(set-logic ALL)
(declare-fun i1 () Int)
(declare-fun it1100 () Int)
(declare-fun it15 () Int)
(declare-fun it1101 () Int)
(declare-fun it14 () Int)
(declare-fun it1102 () Int)
(declare-fun it1103 () Int)
(declare-fun it13 () Int)
(declare-fun bt1173 () Bool)
(declare-fun bt1174 () Bool)
(declare-fun bt1175 () Bool)
(declare-fun bt1176 () Bool)
(declare-fun it17 () Int)
(declare-fun it16 () Int)
(declare-fun it18 () Int)
(declare-fun bt25 () Bool)
(declare-fun bt28 () Bool)
(declare-fun bt26 () Bool)
(declare-fun bt27 () Bool)
(declare-fun it1107 () Int)
(declare-fun it1108 () Int)
(declare-fun it1109 () Int)
(declare-fun it1110 () Int)
(declare-fun bt1177 () Bool)
(declare-fun bt1178 () Bool)
(declare-fun bt1179 () Bool)
(declare-fun bt1180 () Bool)
(declare-fun it356 () Int)
(declare-fun it1531 () Int)
(declare-fun it1532 () Int)
(declare-fun it1533 () Int)
(declare-fun it1534 () Int)
(declare-fun bt1629 () Bool)
(declare-fun bt1630 () Bool)
(declare-fun bt1631 () Bool)
(declare-fun bt1632 () Bool)
(declare-fun it1113 () Int)
(declare-fun bt1184 () Bool)
(declare-fun bt1181 () Bool)
(declare-fun bt1183 () Bool)
(declare-fun it1111 () Int)
(declare-fun it1112 () Int)
(declare-fun bt1182 () Bool)
(declare-fun it1586 () Int)
(declare-fun it1587 () Int)
(declare-fun it1588 () Int)
(declare-fun it1589 () Int)
(declare-fun bt1673 () Bool)
(declare-fun bt1674 () Bool)
(declare-fun bt1675 () Bool)
(declare-fun bt1676 () Bool)
(declare-fun bt1677 () Bool)
(declare-fun it1591 () Int)
(declare-fun it1592 () Int)
(declare-fun bt1680 () Bool)
(declare-fun bt1678 () Bool)
(declare-fun bt1679 () Bool)
(declare-fun it1590 () Int)
(assert (= (+ i1 (- 1)) 0))
(assert (= (+ it1100 (- 2)) 0))
(assert (= (+ it1101 (* it15 (- 1))) 0))
(assert (= (+ it1102 (* it14 (- 1))) 0))
(assert (= (+ (* it13 (- 1)) it1103) 0))
(assert (or (not bt1173) (and false bt1173)))
(assert (or bt1174 (and false (not bt1174))))
(assert (or (not bt1175) (and false bt1175)))
(assert (or (not bt1176) (and false bt1176)))
(assert (and bt27
     (not bt26)
     (not bt28)
     (not bt25)
     (= (+ it18 (- 1)) 0)
     bt1174
     (= (+ (* it16 (- 1)) it1103) 0)
     (not bt1176)
     (= (+ it1102 (* it17 (- 1))) 0)
     (not bt1173)
     (= (+ it1100 (- 2)) 0)
     (not bt1175)))
(assert (= (+ it1107 (- 2)) 0))
(assert (= (+ (* it18 (- 1)) it1108) 0))
(assert (= (+ it1109 (* it17 (- 1))) 0))
(assert (= (+ (* it16 (- 1)) it1110) 0))
(assert (or (and bt27 bt1177) (and (not bt27) (not bt1177))))
(assert (or (and (not bt28) (not bt1178)) (and bt28 bt1178)))
(assert (or (and (not bt26) (not bt1179)) (and bt26 bt1179)))
(assert (or (and (not bt25) (not bt1180)) (and bt25 bt1180)))
(assert (let ((a!1 (+ (+ 0 it1110)
              (* (+ 0 it1108) (exp 3 (+ it356 (- 1))) (+ 0 (- 1))))))
  (and (> a!1 (+ 0 0))
       (>= (+ it1107 (- 2)) 0)
       (not bt1180)
       (> (+ (* it1108 (- 1)) it1110) 0)
       bt1177
       (>= (+ (* it1107 (- 1)) 2) 0)
       (>= (+ it356 (- 1)) 0)
       (>= (* it1109 (- 1)) 0)
       (not bt1179)
       (not bt1178))))
(assert (= (+ it1531 (* it1107 (- 1))) 0))
(assert (= (+ (+ 0 it1532) (* (+ 0 it1108) (exp 3 it356) (+ 0 (- 1))))
   (+ 0 0)))
(assert (= (+ it1533 (* it1109 (- 1))) 0))
(assert (= (+ it1534 (* it1110 (- 1))) 0))
(assert (or bt1629 (and false (not bt1629))))
(assert (or (and false bt1630) (not bt1630)))
(assert (or (not bt1631) (and false bt1631)))
(assert (or (and false bt1632) (not bt1632)))
(assert (and (= (+ it1531 (- 2)) 0)
     (not bt1630)
     (not bt1182)
     (= (+ it1533 (* it1112 (- 1))) 0)
     (= (+ (* it1111 (- 1)) it1532) 0)
     bt1629
     (not bt1183)
     (not bt1181)
     (not bt1632)
     bt1184
     (not bt1631)
     (<= (+ (* it1532 (- 1)) it1534) 0)
     (= (+ it1534 (* it1113 (- 1))) 0)))
(assert (= (+ it1586 (- 2)) 0))
(assert (= (+ it1587 (* it1111 (- 1))) 0))
(assert (= (+ it1588 (* it1112 (- 1))) 0))
(assert (= (+ it1589 (* it1113 (- 1))) 0))
(assert (or (and (not bt1673) (not bt1182)) (and bt1673 bt1182)))
(assert (or (and (not bt1181) (not bt1674)) (and bt1181 bt1674)))
(assert (or (and bt1675 bt1183) (and (not bt1675) (not bt1183))))
(assert (or (and bt1184 bt1676) (and (not bt1676) (not bt1184))))
(assert (and (> it1587 0)
     (= (+ it1587 (* it1590 (- 1))) 0)
     (not bt1679)
     (not bt1678)
     (not bt1674)
     bt1680
     (= (+ (* it1592 (- 1)) it1589) 0)
     bt1676
     (= (+ (* it1591 (- 1)) it1588) 0)
     (= (+ it1586 (- 2)) 0)
     (not bt1673)
     bt1677))
(check-sat)
